c Random generated cnf formula, satisfiable: false
p cnf 10 50
-1 -3 10 0
-4 -6 -10 0
-10 -7 2 0
-1 6 -2 0
-1 6 -7 0
5 1 -7 0
1 -8 2 0
5 1 -9 0
-5 -9 4 0
1 3 9 0
-8 -1 -6 0
7 1 -6 0
-9 6 8 0
-10 2 5 0
-4 -7 5 0
1 -10 9 0
3 -1 -9 0
8 -9 4 0
-2 3 -7 0
9 7 -4 0
9 -1 2 0
6 -9 -7 0
-2 1 -9 0
3 -5 7 0
-6 -2 -10 0
-5 -4 3 0
5 8 -10 0
1 -4 3 0
1 -7 -9 0
-3 -2 -7 0
-7 -10 4 0
-2 -3 7 0
6 -1 -10 0
-6 -3 -8 0
-2 -3 9 0
-8 3 -9 0
10 6 4 0
3 -10 -2 0
-10 -1 6 0
4 7 8 0
8 7 9 0
9 3 10 0
1 -2 5 0
9 -8 7 0
-7 -4 2 0
-5 -3 7 0
9 6 2 0
-2 9 -1 0
-5 1 -7 0
8 1 2 0
